15
1 0 5
2 0 5
2 1 4
3 0 3
3 1 3
3 2 4
4 0 5
4 1 2
4 2 1
4 3 4
5 0 3
5 1 4
5 2 3
5 3 1
5 4 5
6 0 4
6 1 4
6 2 5
6 3 2
6 4 2
6 5 5
7 0 3
7 1 5
7 2 5
7 3 5
7 4 3
7 5 5
7 6 1
8 0 2
8 1 1
8 2 4
8 3 1
8 4 5
8 5 5
8 6 5
8 7 3
9 0 2
9 1 4
9 2 5
9 3 4
9 4 4
9 5 3
9 6 1
9 7 5
9 8 5
10 0 5
10 1 2
10 2 2
10 3 2
10 4 5
10 5 2
10 6 5
10 7 2
10 8 5
10 9 2
11 0 1
11 1 2
11 2 1
11 3 2
11 4 3
11 5 3
11 6 4
11 7 1
11 8 1
11 9 2
11 10 4
12 0 3
12 1 5
12 2 1
12 3 4
12 4 4
12 5 1
12 6 2
12 7 3
12 8 4
12 9 2
12 10 3
12 11 1
13 0 1
13 1 3
13 2 2
13 3 4
13 4 3
13 5 3
13 6 5
13 7 5
13 8 3
13 9 5
13 10 1
13 11 4
13 12 3
14 0 4
14 1 4
14 2 2
14 3 4
14 4 4
14 5 5
14 6 3
14 7 4
14 8 5
14 9 2
14 10 5
14 11 5
14 12 4
14 13 1
